formal/model/design_smt2.smt2
; SMT-LIBv2 description generated by Yosys 0.58+86 (git sha1 8bc63ef6d, aarch64-apple-darwin23.5-clang++ 18.1.8 -fPIC -O3)
; yosys-smt2-module grammar_fsm
(declare-sort |grammar_fsm_s| 0)
(declare-fun |grammar_fsm_is| (|grammar_fsm_s|) Bool)
; yosys-smt2-witness {"offset": 0, "path": ["$auto$async2sync.cc:107:execute$202"], "smtname": 0, "smtoffset": 0, "type": "reg", "width": 1}
(declare-fun |grammar_fsm#0| (|grammar_fsm_s|) (_ BitVec 1)) ; $auto$async2sync.cc:107:execute$202
; yosys-smt2-register $auto$async2sync.cc:107:execute$202 1
(define-fun |grammar_fsm_n $auto$async2sync.cc:107:execute$202| ((state |grammar_fsm_s|)) Bool (= ((_ extract 0 0) (|grammar_fsm#0| state)) #b1))
; yosys-smt2-witness {"offset": 0, "path": ["$auto$async2sync.cc:107:execute$214"], "smtname": 1, "smtoffset": 0, "type": "reg", "width": 1}
(declare-fun |grammar_fsm#1| (|grammar_fsm_s|) (_ BitVec 1)) ; $auto$async2sync.cc:107:execute$214
; yosys-smt2-register $auto$async2sync.cc:107:execute$214 1
(define-fun |grammar_fsm_n $auto$async2sync.cc:107:execute$214| ((state |grammar_fsm_s|)) Bool (= ((_ extract 0 0) (|grammar_fsm#1| state)) #b1))
; yosys-smt2-witness {"offset": 0, "path": ["$auto$async2sync.cc:107:execute$220"], "smtname": 2, "smtoffset": 0, "type": "reg", "width": 1}
(declare-fun |grammar_fsm#2| (|grammar_fsm_s|) (_ BitVec 1)) ; $auto$async2sync.cc:107:execute$220
; yosys-smt2-register $auto$async2sync.cc:107:execute$220 1
(define-fun |grammar_fsm_n $auto$async2sync.cc:107:execute$220| ((state |grammar_fsm_s|)) Bool (= ((_ extract 0 0) (|grammar_fsm#2| state)) #b1))
; yosys-smt2-witness {"offset": 0, "path": ["$auto$async2sync.cc:107:execute$226"], "smtname": 3, "smtoffset": 0, "type": "reg", "width": 1}
(declare-fun |grammar_fsm#3| (|grammar_fsm_s|) (_ BitVec 1)) ; $auto$async2sync.cc:107:execute$226
; yosys-smt2-register $auto$async2sync.cc:107:execute$226 1
(define-fun |grammar_fsm_n $auto$async2sync.cc:107:execute$226| ((state |grammar_fsm_s|)) Bool (= ((_ extract 0 0) (|grammar_fsm#3| state)) #b1))
; yosys-smt2-witness {"offset": 0, "path": ["$auto$async2sync.cc:107:execute$232"], "smtname": 4, "smtoffset": 0, "type": "reg", "width": 1}
(declare-fun |grammar_fsm#4| (|grammar_fsm_s|) (_ BitVec 1)) ; $auto$async2sync.cc:107:execute$232
; yosys-smt2-register $auto$async2sync.cc:107:execute$232 1
(define-fun |grammar_fsm_n $auto$async2sync.cc:107:execute$232| ((state |grammar_fsm_s|)) Bool (= ((_ extract 0 0) (|grammar_fsm#4| state)) #b1))
; yosys-smt2-witness {"offset": 0, "path": ["$auto$async2sync.cc:116:execute$206"], "smtname": 5, "smtoffset": 0, "type": "reg", "width": 1}
(declare-fun |grammar_fsm#5| (|grammar_fsm_s|) (_ BitVec 1)) ; $auto$async2sync.cc:116:execute$206
; yosys-smt2-register $auto$async2sync.cc:116:execute$206 1
(define-fun |grammar_fsm_n $auto$async2sync.cc:116:execute$206| ((state |grammar_fsm_s|)) Bool (= ((_ extract 0 0) (|grammar_fsm#5| state)) #b1))
; yosys-smt2-witness {"offset": 0, "path": ["$auto$async2sync.cc:116:execute$212"], "smtname": 6, "smtoffset": 0, "type": "reg", "width": 1}
(declare-fun |grammar_fsm#6| (|grammar_fsm_s|) (_ BitVec 1)) ; $auto$async2sync.cc:116:execute$212
; yosys-smt2-register $auto$async2sync.cc:116:execute$212 1
(define-fun |grammar_fsm_n $auto$async2sync.cc:116:execute$212| ((state |grammar_fsm_s|)) Bool (= ((_ extract 0 0) (|grammar_fsm#6| state)) #b1))
; yosys-smt2-witness {"offset": 0, "path": ["$auto$async2sync.cc:116:execute$218"], "smtname": 7, "smtoffset": 0, "type": "reg", "width": 1}
(declare-fun |grammar_fsm#7| (|grammar_fsm_s|) (_ BitVec 1)) ; $auto$async2sync.cc:116:execute$218
; yosys-smt2-register $auto$async2sync.cc:116:execute$218 1
(define-fun |grammar_fsm_n $auto$async2sync.cc:116:execute$218| ((state |grammar_fsm_s|)) Bool (= ((_ extract 0 0) (|grammar_fsm#7| state)) #b1))
; yosys-smt2-witness {"offset": 0, "path": ["$auto$async2sync.cc:116:execute$224"], "smtname": 8, "smtoffset": 0, "type": "reg", "width": 1}
(declare-fun |grammar_fsm#8| (|grammar_fsm_s|) (_ BitVec 1)) ; $auto$async2sync.cc:116:execute$224
; yosys-smt2-register $auto$async2sync.cc:116:execute$224 1
(define-fun |grammar_fsm_n $auto$async2sync.cc:116:execute$224| ((state |grammar_fsm_s|)) Bool (= ((_ extract 0 0) (|grammar_fsm#8| state)) #b1))
; yosys-smt2-witness {"offset": 0, "path": ["$auto$async2sync.cc:116:execute$230"], "smtname": 9, "smtoffset": 0, "type": "reg", "width": 1}
(declare-fun |grammar_fsm#9| (|grammar_fsm_s|) (_ BitVec 1)) ; $auto$async2sync.cc:116:execute$230
; yosys-smt2-register $auto$async2sync.cc:116:execute$230 1
(define-fun |grammar_fsm_n $auto$async2sync.cc:116:execute$230| ((state |grammar_fsm_s|)) Bool (= ((_ extract 0 0) (|grammar_fsm#9| state)) #b1))
; yosys-smt2-witness {"offset": 0, "path": ["$auto$async2sync.cc:116:execute$236"], "smtname": 10, "smtoffset": 0, "type": "reg", "width": 1}
(declare-fun |grammar_fsm#10| (|grammar_fsm_s|) (_ BitVec 1)) ; $auto$async2sync.cc:116:execute$236
; yosys-smt2-register $auto$async2sync.cc:116:execute$236 1
(define-fun |grammar_fsm_n $auto$async2sync.cc:116:execute$236| ((state |grammar_fsm_s|)) Bool (= ((_ extract 0 0) (|grammar_fsm#10| state)) #b1))
; yosys-smt2-anyinit grammar_fsm#11 1 grammar_fsm.v:35.5-114.8
; yosys-smt2-witness {"offset": 0, "path": ["\\accept"], "smtname": 11, "smtoffset": 0, "type": "init", "width": 1}
(declare-fun |grammar_fsm#11| (|grammar_fsm_s|) (_ BitVec 1)) ; \accept
; yosys-smt2-output accept 1
; yosys-smt2-register accept 1
; yosys-smt2-wire accept 1
(define-fun |grammar_fsm_n accept| ((state |grammar_fsm_s|)) Bool (= ((_ extract 0 0) (|grammar_fsm#11| state)) #b1))
; yosys-smt2-witness {"offset": 0, "path": ["\\bad_char_in_idle"], "smtname": 12, "smtoffset": 0, "type": "reg", "width": 1}
(declare-fun |grammar_fsm#12| (|grammar_fsm_s|) (_ BitVec 1)) ; \bad_char_in_idle
; yosys-smt2-register bad_char_in_idle 1
; yosys-smt2-wire bad_char_in_idle 1
(define-fun |grammar_fsm_n bad_char_in_idle| ((state |grammar_fsm_s|)) Bool (= ((_ extract 0 0) (|grammar_fsm#12| state)) #b1))
(declare-fun |grammar_fsm#13| (|grammar_fsm_s|) Bool) ; \clk
; yosys-smt2-input clk 1
; yosys-smt2-wire clk 1
; yosys-smt2-clock clk posedge
; yosys-smt2-witness {"offset": 0, "path": ["\\clk"], "smtname": "clk", "smtoffset": 0, "type": "posedge", "width": 1}
; yosys-smt2-witness {"offset": 0, "path": ["\\clk"], "smtname": "clk", "smtoffset": 0, "type": "input", "width": 1}
(define-fun |grammar_fsm_n clk| ((state |grammar_fsm_s|)) Bool (|grammar_fsm#13| state))
(declare-fun |grammar_fsm#14| (|grammar_fsm_s|) (_ BitVec 8)) ; \data_in
; yosys-smt2-input data_in 8
; yosys-smt2-wire data_in 8
; yosys-smt2-witness {"offset": 0, "path": ["\\data_in"], "smtname": "data_in", "smtoffset": 0, "type": "input", "width": 8}
(define-fun |grammar_fsm_n data_in| ((state |grammar_fsm_s|)) (_ BitVec 8) (|grammar_fsm#14| state))
(declare-fun |grammar_fsm#15| (|grammar_fsm_s|) Bool) ; \data_valid
; yosys-smt2-input data_valid 1
; yosys-smt2-wire data_valid 1
; yosys-smt2-witness {"offset": 0, "path": ["\\data_valid"], "smtname": "data_valid", "smtoffset": 0, "type": "input", "width": 1}
(define-fun |grammar_fsm_n data_valid| ((state |grammar_fsm_s|)) Bool (|grammar_fsm#15| state))
; yosys-smt2-anyinit grammar_fsm#16 1 grammar_fsm.v:35.5-114.8
; yosys-smt2-witness {"offset": 0, "path": ["\\reject"], "smtname": 16, "smtoffset": 0, "type": "init", "width": 1}
(declare-fun |grammar_fsm#16| (|grammar_fsm_s|) (_ BitVec 1)) ; \reject
; yosys-smt2-output reject 1
; yosys-smt2-register reject 1
; yosys-smt2-wire reject 1
(define-fun |grammar_fsm_n reject| ((state |grammar_fsm_s|)) Bool (= ((_ extract 0 0) (|grammar_fsm#16| state)) #b1))
(declare-fun |grammar_fsm#17| (|grammar_fsm_s|) Bool) ; \rst
; yosys-smt2-input rst 1
; yosys-smt2-wire rst 1
; yosys-smt2-witness {"offset": 0, "path": ["\\rst"], "smtname": "rst", "smtoffset": 0, "type": "input", "width": 1}
(define-fun |grammar_fsm_n rst| ((state |grammar_fsm_s|)) Bool (|grammar_fsm#17| state))
; yosys-smt2-witness {"offset": 0, "path": ["\\seen_accept"], "smtname": 18, "smtoffset": 0, "type": "reg", "width": 1}
(declare-fun |grammar_fsm#18| (|grammar_fsm_s|) (_ BitVec 1)) ; \seen_accept
; yosys-smt2-register seen_accept 1
; yosys-smt2-wire seen_accept 1
(define-fun |grammar_fsm_n seen_accept| ((state |grammar_fsm_s|)) Bool (= ((_ extract 0 0) (|grammar_fsm#18| state)) #b1))
; yosys-smt2-witness {"offset": 0, "path": ["\\seq_step"], "smtname": 19, "smtoffset": 0, "type": "reg", "width": 2}
(declare-fun |grammar_fsm#19| (|grammar_fsm_s|) (_ BitVec 2)) ; \seq_step
; yosys-smt2-register seq_step 2
; yosys-smt2-wire seq_step 2
(define-fun |grammar_fsm_n seq_step| ((state |grammar_fsm_s|)) (_ BitVec 2) (|grammar_fsm#19| state))
; yosys-smt2-witness {"offset": 0, "path": ["\\state"], "smtname": 20, "smtoffset": 0, "type": "reg", "width": 3}
(declare-fun |grammar_fsm#20| (|grammar_fsm_s|) (_ BitVec 3)) ; \state
; yosys-smt2-register state 3
; yosys-smt2-wire state 3
(define-fun |grammar_fsm_n state| ((state |grammar_fsm_s|)) (_ BitVec 3) (|grammar_fsm#20| state))
(define-fun |grammar_fsm#21| ((state |grammar_fsm_s|)) (_ BitVec 1) (bvnot (ite (|grammar_fsm#13| state) #b1 #b0))) ; $auto$rtlil.cc:3135:Not$357
; yosys-smt2-assume 0 $auto$formalff.cc:987:execute$358
(define-fun |grammar_fsm_u 0| ((state |grammar_fsm_s|)) Bool (or (= ((_ extract 0 0) (|grammar_fsm#21| state)) #b1) (not true))) ; $auto$formalff.cc:987:execute$358
; yosys-smt2-assert 0 _witness_.check_assert_grammar_fsm_v_126_8 grammar_fsm.v:126.9-126.36
(define-fun |grammar_fsm_a 0| ((state |grammar_fsm_s|)) Bool (or (= ((_ extract 0 0) (|grammar_fsm#5| state)) #b1) (not (= ((_ extract 0 0) (|grammar_fsm#0| state)) #b1)))) ; _witness_.check_assert_grammar_fsm_v_126_8
; yosys-smt2-assert 1 _witness_.check_assert_grammar_fsm_v_131_12 grammar_fsm.v:131.9-131.34
(define-fun |grammar_fsm_a 1| ((state |grammar_fsm_s|)) Bool (or (= ((_ extract 0 0) (|grammar_fsm#6| state)) #b1) (not (= ((_ extract 0 0) (|grammar_fsm#0| state)) #b1)))) ; _witness_.check_assert_grammar_fsm_v_131_12
; yosys-smt2-assert 2 _witness_.check_assert_grammar_fsm_v_137_15 grammar_fsm.v:137.13-137.54
(define-fun |grammar_fsm_a 2| ((state |grammar_fsm_s|)) Bool (or (= ((_ extract 0 0) (|grammar_fsm#7| state)) #b1) (not (= ((_ extract 0 0) (|grammar_fsm#1| state)) #b1)))) ; _witness_.check_assert_grammar_fsm_v_137_15
; yosys-smt2-assert 3 _witness_.check_assert_grammar_fsm_v_143_20 grammar_fsm.v:143.13-143.57
(define-fun |grammar_fsm_a 3| ((state |grammar_fsm_s|)) Bool (or (= ((_ extract 0 0) (|grammar_fsm#8| state)) #b1) (not (= ((_ extract 0 0) (|grammar_fsm#2| state)) #b1)))) ; _witness_.check_assert_grammar_fsm_v_143_20
; yosys-smt2-assert 4 _witness_.check_assert_grammar_fsm_v_169_44 grammar_fsm.v:169.13-169.42
(define-fun |grammar_fsm_a 4| ((state |grammar_fsm_s|)) Bool (or (= ((_ extract 0 0) (|grammar_fsm#9| state)) #b1) (not (= ((_ extract 0 0) (|grammar_fsm#3| state)) #b1)))) ; _witness_.check_assert_grammar_fsm_v_169_44
; yosys-smt2-assert 5 _witness_.check_assert_grammar_fsm_v_187_54 grammar_fsm.v:187.13-187.27
(define-fun |grammar_fsm_a 5| ((state |grammar_fsm_s|)) Bool (or (= ((_ extract 0 0) (|grammar_fsm#10| state)) #b1) (not (= ((_ extract 0 0) (|grammar_fsm#4| state)) #b1)))) ; _witness_.check_assert_grammar_fsm_v_187_54
(define-fun |grammar_fsm#22| ((state |grammar_fsm_s|)) Bool (not (or  (= ((_ extract 0 0) (|grammar_fsm#20| state)) #b1) (= ((_ extract 1 1) (|grammar_fsm#20| state)) #b1) (= ((_ extract 2 2) (|grammar_fsm#20| state)) #b1)))) ; $eq$grammar_fsm.v:120$75_Y
(define-fun |grammar_fsm#23| ((state |grammar_fsm_s|)) Bool (|grammar_fsm_is| state)) ; $auto$rtlil.cc:3182:And$241
; yosys-smt2-assume 1 _witness_.check_assume_grammar_fsm_v_120_74 grammar_fsm.v:120.13-120.36
(define-fun |grammar_fsm_u 1| ((state |grammar_fsm_s|)) Bool (or (|grammar_fsm#22| state) (not (|grammar_fsm#23| state)))) ; _witness_.check_assume_grammar_fsm_v_120_74
(define-fun |grammar_fsm#24| ((state |grammar_fsm_s|)) (_ BitVec 1) (bvnot (|grammar_fsm#11| state))) ; $eq$grammar_fsm.v:121$78_Y
; yosys-smt2-assume 2 _witness_.check_assume_grammar_fsm_v_121_77 grammar_fsm.v:121.13-121.32
(define-fun |grammar_fsm_u 2| ((state |grammar_fsm_s|)) Bool (or (= ((_ extract 0 0) (|grammar_fsm#24| state)) #b1) (not (|grammar_fsm#23| state)))) ; _witness_.check_assume_grammar_fsm_v_121_77
(define-fun |grammar_fsm#25| ((state |grammar_fsm_s|)) (_ BitVec 1) (bvnot (|grammar_fsm#16| state))) ; $eq$grammar_fsm.v:122$81_Y
; yosys-smt2-assume 3 _witness_.check_assume_grammar_fsm_v_122_80 grammar_fsm.v:122.13-122.32
(define-fun |grammar_fsm_u 3| ((state |grammar_fsm_s|)) Bool (or (= ((_ extract 0 0) (|grammar_fsm#25| state)) #b1) (not (|grammar_fsm#23| state)))) ; _witness_.check_assume_grammar_fsm_v_122_80
(define-fun |grammar_fsm#26| ((state |grammar_fsm_s|)) Bool (= (|grammar_fsm#14| state) #b01000011)) ; $eq$grammar_fsm.v:155$26_Y
(define-fun |grammar_fsm#27| ((state |grammar_fsm_s|)) (_ BitVec 3) (ite (|grammar_fsm#26| state) #b001 #b100)) ; $procmux$123_Y
(define-fun |grammar_fsm#28| ((state |grammar_fsm_s|)) Bool (= (|grammar_fsm#14| state) #b01010100)) ; $eq$grammar_fsm.v:159$36_Y
(define-fun |grammar_fsm#29| ((state |grammar_fsm_s|)) (_ BitVec 3) (ite (|grammar_fsm#28| state) #b011 #b100)) ; $procmux$132_Y
(define-fun |grammar_fsm#30| ((state |grammar_fsm_s|)) Bool (= (|grammar_fsm#14| state) #b01000001)) ; $eq$grammar_fsm.v:157$31_Y
(define-fun |grammar_fsm#31| ((state |grammar_fsm_s|)) (_ BitVec 3) (ite (|grammar_fsm#30| state) #b010 #b100)) ; $procmux$136_Y
(define-fun |grammar_fsm#32| ((state |grammar_fsm_s|)) Bool (= (|grammar_fsm#20| state) #b011)) ; $eq$grammar_fsm.v:137$16_Y
(define-fun |grammar_fsm#33| ((state |grammar_fsm_s|)) Bool (= (|grammar_fsm#20| state) #b100)) ; $eq$grammar_fsm.v:143$21_Y
(define-fun |grammar_fsm#34| ((state |grammar_fsm_s|)) Bool (or  (|grammar_fsm#32| state) (|grammar_fsm#33| state) (|grammar_fsm#22| state))) ; $auto$opt_reduce.cc:137:opt_pmux$199
(define-fun |grammar_fsm#35| ((state |grammar_fsm_s|)) Bool (= (|grammar_fsm#20| state) #b010)) ; $eq$grammar_fsm.v:159$38_Y
(define-fun |grammar_fsm#36| ((state |grammar_fsm_s|)) Bool (= (|grammar_fsm#20| state) #b001)) ; $eq$grammar_fsm.v:157$33_Y
(define-fun |grammar_fsm#37| ((state |grammar_fsm_s|)) (_ BitVec 3) (ite (|grammar_fsm#36| state) (|grammar_fsm#31| state) (ite (|grammar_fsm#35| state) (|grammar_fsm#29| state) (ite (|grammar_fsm#34| state) (|grammar_fsm#27| state) #b000)))) ; $procmux$125_Y
(define-fun |grammar_fsm#38| ((state |grammar_fsm_s|)) (_ BitVec 3) (ite (|grammar_fsm#15| state) (|grammar_fsm#37| state) (|grammar_fsm#20| state))) ; $procmux$143_Y
(define-fun |grammar_fsm#39| ((state |grammar_fsm_s|)) (_ BitVec 3) (ite (|grammar_fsm#17| state) #b000 (|grammar_fsm#38| state))) ; $0\state[2:0]
(define-fun |grammar_fsm#40| ((state |grammar_fsm_s|)) Bool (= (|grammar_fsm#19| state) #b10)) ; $eq$grammar_fsm.v:159$35_Y
(define-fun |grammar_fsm#41| ((state |grammar_fsm_s|)) Bool (and (or  (|grammar_fsm#40| state) false) (or  (|grammar_fsm#28| state) false))) ; $logic_and$grammar_fsm.v:159$37_Y
(define-fun |grammar_fsm#42| ((state |grammar_fsm_s|)) Bool (and (or  (|grammar_fsm#41| state) false) (or  (|grammar_fsm#35| state) false))) ; $logic_and$grammar_fsm.v:159$39_Y
(define-fun |grammar_fsm#43| ((state |grammar_fsm_s|)) (_ BitVec 2) (ite (|grammar_fsm#42| state) #b11 (|grammar_fsm#19| state))) ; $procmux$104_Y
(define-fun |grammar_fsm#44| ((state |grammar_fsm_s|)) Bool (= (|grammar_fsm#19| state) #b01)) ; $eq$grammar_fsm.v:157$30_Y
(define-fun |grammar_fsm#45| ((state |grammar_fsm_s|)) Bool (and (or  (|grammar_fsm#44| state) false) (or  (|grammar_fsm#30| state) false))) ; $logic_and$grammar_fsm.v:157$32_Y
(define-fun |grammar_fsm#46| ((state |grammar_fsm_s|)) Bool (and (or  (|grammar_fsm#45| state) false) (or  (|grammar_fsm#36| state) false))) ; $logic_and$grammar_fsm.v:157$34_Y
(define-fun |grammar_fsm#47| ((state |grammar_fsm_s|)) (_ BitVec 2) (ite (|grammar_fsm#46| state) #b10 (|grammar_fsm#43| state))) ; $procmux$107_Y
(define-fun |grammar_fsm#48| ((state |grammar_fsm_s|)) Bool (not (or  (= ((_ extract 0 0) (|grammar_fsm#19| state)) #b1) (= ((_ extract 1 1) (|grammar_fsm#19| state)) #b1)))) ; $eq$grammar_fsm.v:155$25_Y
(define-fun |grammar_fsm#49| ((state |grammar_fsm_s|)) Bool (and (or  (|grammar_fsm#48| state) false) (or  (|grammar_fsm#26| state) false))) ; $logic_and$grammar_fsm.v:155$27_Y
(define-fun |grammar_fsm#50| ((state |grammar_fsm_s|)) Bool (and (or  (|grammar_fsm#49| state) false) (or  (|grammar_fsm#22| state) false))) ; $logic_and$grammar_fsm.v:155$29_Y
(define-fun |grammar_fsm#51| ((state |grammar_fsm_s|)) (_ BitVec 2) (ite (|grammar_fsm#50| state) #b01 (|grammar_fsm#47| state))) ; $procmux$110_Y
(define-fun |grammar_fsm#52| ((state |grammar_fsm_s|)) (_ BitVec 2) (ite (|grammar_fsm#15| state) (|grammar_fsm#51| state) (|grammar_fsm#19| state))) ; $procmux$112_Y
(define-fun |grammar_fsm#53| ((state |grammar_fsm_s|)) (_ BitVec 2) (ite (|grammar_fsm#17| state) #b00 (|grammar_fsm#52| state))) ; $0\seq_step[1:0]
(define-fun |grammar_fsm#54| ((state |grammar_fsm_s|)) Bool (= (|grammar_fsm#19| state) #b11)) ; $eq$grammar_fsm.v:162$40_Y
(define-fun |grammar_fsm#55| ((state |grammar_fsm_s|)) Bool (and (or  (|grammar_fsm#54| state) false) (or  (= ((_ extract 0 0) (|grammar_fsm#11| state)) #b1) false))) ; $logic_and$grammar_fsm.v:162$41_Y
(define-fun |grammar_fsm#56| ((state |grammar_fsm_s|)) (_ BitVec 1) (ite (|grammar_fsm#55| state) #b1 (|grammar_fsm#18| state))) ; $procmux$97_Y
(define-fun |grammar_fsm#57| ((state |grammar_fsm_s|)) (_ BitVec 1) (ite (|grammar_fsm#15| state) (|grammar_fsm#56| state) (|grammar_fsm#18| state))) ; $procmux$99_Y
(define-fun |grammar_fsm#58| ((state |grammar_fsm_s|)) (_ BitVec 1) (ite (|grammar_fsm#17| state) #b0 (|grammar_fsm#57| state))) ; $0\seen_accept[0:0]
(define-fun |grammar_fsm#59| ((state |grammar_fsm_s|)) (_ BitVec 1) (ite (|grammar_fsm#26| state) #b0 #b1)) ; $procmux$150_Y
(define-fun |grammar_fsm#60| ((state |grammar_fsm_s|)) (_ BitVec 1) (ite (|grammar_fsm#28| state) #b0 #b1)) ; $procmux$159_Y
(define-fun |grammar_fsm#61| ((state |grammar_fsm_s|)) (_ BitVec 1) (ite (|grammar_fsm#30| state) (|grammar_fsm#16| state) #b1)) ; $procmux$163_Y
(define-fun |grammar_fsm#62| ((state |grammar_fsm_s|)) (_ BitVec 1) (ite (|grammar_fsm#36| state) (|grammar_fsm#61| state) (ite (|grammar_fsm#35| state) (|grammar_fsm#60| state) (ite (|grammar_fsm#34| state) (|grammar_fsm#59| state) #b0)))) ; $procmux$152_Y
(define-fun |grammar_fsm#63| ((state |grammar_fsm_s|)) (_ BitVec 1) (ite (|grammar_fsm#15| state) (|grammar_fsm#62| state) (|grammar_fsm#16| state))) ; $procmux$170_Y
(define-fun |grammar_fsm#64| ((state |grammar_fsm_s|)) (_ BitVec 1) (ite (|grammar_fsm#17| state) #b0 (|grammar_fsm#63| state))) ; $0\reject[0:0]
(define-fun |grammar_fsm#65| ((state |grammar_fsm_s|)) Bool (and (or  (|grammar_fsm#15| state) false) (or  (|grammar_fsm#22| state) false))) ; $logic_and$grammar_fsm.v:178$48_Y
(define-fun |grammar_fsm#66| ((state |grammar_fsm_s|)) Bool (distinct (|grammar_fsm#14| state) #b01000011)) ; $ne$grammar_fsm.v:178$49_Y
(define-fun |grammar_fsm#67| ((state |grammar_fsm_s|)) Bool (and (or  (|grammar_fsm#65| state) false) (or  (|grammar_fsm#66| state) false))) ; $logic_and$grammar_fsm.v:178$50_Y
(define-fun |grammar_fsm#68| ((state |grammar_fsm_s|)) (_ BitVec 1) (ite (|grammar_fsm#67| state) #b1 #b0)) ; $procmux$90_Y
(define-fun |grammar_fsm#69| ((state |grammar_fsm_s|)) (_ BitVec 1) (ite (|grammar_fsm#17| state) #b0 (|grammar_fsm#68| state))) ; $0\bad_char_in_idle[0:0]
(define-fun |grammar_fsm#70| ((state |grammar_fsm_s|)) (_ BitVec 1) (ite (|grammar_fsm#28| state) #b1 #b0)) ; $procmux$179_Y
(define-fun |grammar_fsm#71| ((state |grammar_fsm_s|)) (_ BitVec 1) (ite (|grammar_fsm#30| state) (|grammar_fsm#11| state) #b0)) ; $procmux$184_Y
(define-fun |grammar_fsm#72| ((state |grammar_fsm_s|)) (_ BitVec 1) (ite (|grammar_fsm#36| state) (|grammar_fsm#71| state) (ite (|grammar_fsm#35| state) (|grammar_fsm#70| state) #b0))) ; $procmux$181_Y
(define-fun |grammar_fsm#73| ((state |grammar_fsm_s|)) (_ BitVec 1) (ite (|grammar_fsm#15| state) (|grammar_fsm#72| state) (|grammar_fsm#11| state))) ; $procmux$187_Y
(define-fun |grammar_fsm#74| ((state |grammar_fsm_s|)) (_ BitVec 1) (ite (|grammar_fsm#17| state) #b0 (|grammar_fsm#73| state))) ; $0\accept[0:0]
(define-fun |grammar_fsm#75| ((state |grammar_fsm_s|)) Bool (or  (= ((_ extract 0 0) (|grammar_fsm#11| state)) #b1) false  (= ((_ extract 0 0) (|grammar_fsm#18| state)) #b1) false)) ; $logic_or$grammar_fsm.v:169$45_Y
(define-fun |grammar_fsm#76| ((state |grammar_fsm_s|)) Bool (or  (|grammar_fsm#33| state) false  (|grammar_fsm#22| state) false)) ; $logic_or$grammar_fsm.v:143$23_Y
(define-fun |grammar_fsm#77| ((state |grammar_fsm_s|)) Bool (or  (|grammar_fsm#32| state) false  (|grammar_fsm#22| state) false)) ; $logic_or$grammar_fsm.v:137$18_Y
(define-fun |grammar_fsm#78| ((state |grammar_fsm_s|)) Bool (bvule (|grammar_fsm#20| state) #b100)) ; $le$grammar_fsm.v:131$13_Y
(define-fun |grammar_fsm#79| ((state |grammar_fsm_s|)) Bool (and (or  (= ((_ extract 0 0) (|grammar_fsm#11| state)) #b1) false) (or  (= ((_ extract 0 0) (|grammar_fsm#16| state)) #b1) false))) ; $logic_and$grammar_fsm.v:126$9_Y
(define-fun |grammar_fsm#80| ((state |grammar_fsm_s|)) Bool (not (or  (|grammar_fsm#79| state) false))) ; $logic_not$grammar_fsm.v:126$10_Y
(define-fun |grammar_fsm#81| ((state |grammar_fsm_s|)) Bool (not (or  (|grammar_fsm#17| state) false))) ; $logic_not$grammar_fsm.v:186$52_Y
(define-fun |grammar_fsm#82| ((state |grammar_fsm_s|)) Bool (and (or  (= ((_ extract 0 0) (|grammar_fsm#12| state)) #b1) false) (or  (|grammar_fsm#81| state) false))) ; $logic_and$grammar_fsm.v:186$53_Y
(define-fun |grammar_fsm#83| ((state |grammar_fsm_s|)) (_ BitVec 1) (ite (|grammar_fsm#82| state) #b1 #b0)) ; $assert$grammar_fsm.v:187$54_EN
(define-fun |grammar_fsm#84| ((state |grammar_fsm_s|)) (_ BitVec 1) (ite (|grammar_fsm#54| state) #b1 #b0)) ; $assert$grammar_fsm.v:169$44_EN
(define-fun |grammar_fsm#85| ((state |grammar_fsm_s|)) (_ BitVec 1) (ite (= ((_ extract 0 0) (|grammar_fsm#16| state)) #b1) #b1 #b0)) ; $assert$grammar_fsm.v:143$20_EN
(define-fun |grammar_fsm#86| ((state |grammar_fsm_s|)) (_ BitVec 1) (ite (= ((_ extract 0 0) (|grammar_fsm#11| state)) #b1) #b1 #b0)) ; $assert$grammar_fsm.v:137$15_EN
(define-fun |grammar_fsm_a| ((state |grammar_fsm_s|)) Bool (and
  (|grammar_fsm_a 0| state)
  (|grammar_fsm_a 1| state)
  (|grammar_fsm_a 2| state)
  (|grammar_fsm_a 3| state)
  (|grammar_fsm_a 4| state)
  (|grammar_fsm_a 5| state)
))
(define-fun |grammar_fsm_u| ((state |grammar_fsm_s|)) Bool (and
  (|grammar_fsm_u 0| state)
  (|grammar_fsm_u 1| state)
  (|grammar_fsm_u 2| state)
  (|grammar_fsm_u 3| state)
))
(define-fun |grammar_fsm_i| ((state |grammar_fsm_s|)) Bool (and
  (= (= ((_ extract 0 0) (|grammar_fsm#0| state)) #b1) false) ; $auto$async2sync.cc:107:execute$202
  (= (= ((_ extract 0 0) (|grammar_fsm#1| state)) #b1) false) ; $auto$async2sync.cc:107:execute$214
  (= (= ((_ extract 0 0) (|grammar_fsm#2| state)) #b1) false) ; $auto$async2sync.cc:107:execute$220
  (= (= ((_ extract 0 0) (|grammar_fsm#3| state)) #b1) false) ; $auto$async2sync.cc:107:execute$226
  (= (= ((_ extract 0 0) (|grammar_fsm#4| state)) #b1) false) ; $auto$async2sync.cc:107:execute$232
  (= (= ((_ extract 0 0) (|grammar_fsm#5| state)) #b1) true) ; $auto$async2sync.cc:116:execute$206
  (= (= ((_ extract 0 0) (|grammar_fsm#6| state)) #b1) true) ; $auto$async2sync.cc:116:execute$212
  (= (= ((_ extract 0 0) (|grammar_fsm#7| state)) #b1) true) ; $auto$async2sync.cc:116:execute$218
  (= (= ((_ extract 0 0) (|grammar_fsm#8| state)) #b1) true) ; $auto$async2sync.cc:116:execute$224
  (= (= ((_ extract 0 0) (|grammar_fsm#9| state)) #b1) true) ; $auto$async2sync.cc:116:execute$230
  (= (= ((_ extract 0 0) (|grammar_fsm#10| state)) #b1) true) ; $auto$async2sync.cc:116:execute$236
  (= (= ((_ extract 0 0) (|grammar_fsm#12| state)) #b1) false) ; bad_char_in_idle
  (= (= ((_ extract 0 0) (|grammar_fsm#18| state)) #b1) false) ; seen_accept
  (= (|grammar_fsm#19| state) #b00) ; seq_step
  (= (|grammar_fsm#20| state) #b000) ; state
))
(define-fun |grammar_fsm_h| ((state |grammar_fsm_s|)) Bool true)
(define-fun |grammar_fsm_t| ((state |grammar_fsm_s|) (next_state |grammar_fsm_s|)) Bool (and
  (= (|grammar_fsm#39| state) (|grammar_fsm#20| next_state)) ; $procdff$197 \state
  (= (|grammar_fsm#53| state) (|grammar_fsm#19| next_state)) ; $procdff$193 \seq_step
  (= (|grammar_fsm#58| state) (|grammar_fsm#18| next_state)) ; $procdff$194 \seen_accept
  (= (|grammar_fsm#64| state) (|grammar_fsm#16| next_state)) ; $procdff$196 \reject
  (= (|grammar_fsm#69| state) (|grammar_fsm#12| next_state)) ; $procdff$192 \bad_char_in_idle
  (= (|grammar_fsm#74| state) (|grammar_fsm#11| next_state)) ; $procdff$195 \accept
  (= (|grammar_fsm#16| state) (|grammar_fsm#10| next_state)) ; $auto$async2sync.cc:118:execute$237 $auto$async2sync.cc:116:execute$236
  (= (ite (|grammar_fsm#75| state) #b1 #b0) (|grammar_fsm#9| next_state)) ; $auto$async2sync.cc:118:execute$231 $auto$async2sync.cc:116:execute$230
  (= (ite (|grammar_fsm#76| state) #b1 #b0) (|grammar_fsm#8| next_state)) ; $auto$async2sync.cc:118:execute$225 $auto$async2sync.cc:116:execute$224
  (= (ite (|grammar_fsm#77| state) #b1 #b0) (|grammar_fsm#7| next_state)) ; $auto$async2sync.cc:118:execute$219 $auto$async2sync.cc:116:execute$218
  (= (ite (|grammar_fsm#78| state) #b1 #b0) (|grammar_fsm#6| next_state)) ; $auto$async2sync.cc:118:execute$213 $auto$async2sync.cc:116:execute$212
  (= (ite (|grammar_fsm#80| state) #b1 #b0) (|grammar_fsm#5| next_state)) ; $auto$async2sync.cc:118:execute$207 $auto$async2sync.cc:116:execute$206
  (= (|grammar_fsm#83| state) (|grammar_fsm#4| next_state)) ; $auto$async2sync.cc:110:execute$234 $auto$async2sync.cc:107:execute$232
  (= (|grammar_fsm#84| state) (|grammar_fsm#3| next_state)) ; $auto$async2sync.cc:110:execute$228 $auto$async2sync.cc:107:execute$226
  (= (|grammar_fsm#85| state) (|grammar_fsm#2| next_state)) ; $auto$async2sync.cc:110:execute$222 $auto$async2sync.cc:107:execute$220
  (= (|grammar_fsm#86| state) (|grammar_fsm#1| next_state)) ; $auto$async2sync.cc:110:execute$216 $auto$async2sync.cc:107:execute$214
  (= #b1 (|grammar_fsm#0| next_state)) ; $auto$async2sync.cc:110:execute$204 $auto$async2sync.cc:107:execute$202
)) ; end of module grammar_fsm
; yosys-smt2-topmod grammar_fsm
; end of yosys output
